NAME          COPTPROB
OBJSENSE
  MIN
ROWS
 N  __OBJ___
 L  C0      
 L  C2      
 L  C3      
 L  C4      
 L  C7      
 L  C8      
 L  C10     
 L  C15     
 L  C16     
 L  C17     
 L  C19     
 L  C21     
 L  C22     
 L  C24     
 L  C27     
 L  C28     
 L  C29     
 L  C31     
 L  C32     
 L  C33     
 L  C38     
 L  C39     
 L  C40     
 L  C46     
 L  C48     
 L  C49     
 L  C52     
 L  C53     
 L  C61     
 L  C62     
 L  C66     
 L  C68     
 L  C72     
 L  C73     
 L  C74     
 L  C76     
 L  C79     
 L  C82     
 L  C84     
 L  C87     
 L  C89     
 L  C90     
 L  C91     
 L  C92     
 L  C93     
 L  C94     
 L  C96     
 L  C99     
 L  C100    
 L  C101    
 L  C102    
 L  C105    
 L  C106    
 L  C107    
 L  C108    
 L  C110    
 L  C112    
 L  C113    
 L  C115    
 L  C116    
 L  C117    
 L  C121    
 L  C122    
 L  C123    
 L  C125    
 L  C128    
 L  C129    
 L  C131    
 L  C132    
 L  C133    
 L  C137    
 L  C139    
 L  C140    
 L  C141    
 L  C142    
 L  C146    
 L  C147    
 L  C148    
 L  C155    
 L  C158    
 L  C159    
 L  C161    
 L  C162    
 L  C165    
 L  C167    
 L  C168    
 L  C169    
 L  C172    
 L  C176    
 L  C178    
 L  C180    
 L  C189    
 L  C193    
 L  C194    
 L  C195    
 L  C198    
 L  C200    
 L  C201    
 L  C206    
 L  C210    
 L  C211    
 L  C212    
 L  C213    
 L  C215    
 L  C217    
 L  C218    
 L  C219    
 L  C221    
 L  C222    
 L  C226    
 L  C227    
 L  C229    
 L  C231    
 L  C232    
 L  C233    
 L  C235    
 L  C237    
 L  C238    
 L  C241    
 L  C242    
 L  C245    
 L  C246    
 L  C247    
 L  C251    
 L  C254    
 L  C255    
 L  C256    
 L  C257    
 L  C259    
 L  C260    
 L  C261    
 L  C263    
 L  C264    
 L  C266    
 L  C267    
 L  C269    
 L  C275    
 L  C276    
 L  C278    
 L  C279    
 L  C280    
 L  C284    
 L  C285    
 L  C287    
 L  C290    
 L  C299    
 L  C304    
 L  C305    
 L  C306    
 L  C309    
 L  C310    
 L  C312    
 L  C314    
 L  C316    
 L  C317    
 L  C318    
 L  C320    
 L  C324    
 L  C325    
 L  C326    
 L  C327    
 L  C329    
 L  C330    
 L  C332    
 L  C333    
 L  C334    
 L  C335    
 L  C339    
 L  C340    
 L  C341    
 L  C342    
 L  C344    
 L  C347    
 L  C349    
 L  C352    
 L  C354    
 L  C355    
 L  C360    
 L  C364    
 L  C368    
 L  C369    
 L  C370    
 L  C371    
 L  C375    
 L  C377    
 L  C381    
 L  C382    
 L  C387    
 L  C388    
 L  C389    
 L  C391    
 L  C395    
 L  C398    
COLUMNS
    MARKER    'MARKER'                 'INTORG'
    x1        __OBJ___  852
    x1        C334      -1
    x1        C352      -1
    x1        C370      -1
    x2        __OBJ___  737
    x2        C84       -1
    x2        C91       -1
    x2        C195      -1
    x3        __OBJ___  562
    x3        C167      -1
    x3        C267      -1
    x3        C275      -1
    x3        C316      -1
    x4        __OBJ___  111
    x4        C96       -1
    x4        C172      -1
    x4        C229      -1
    x6        __OBJ___  432
    x6        C15       -1
    x6        C38       -1
    x6        C327      -1
    x6        C335      -1
    x8        __OBJ___  336
    x8        C90       -1
    x8        C99       -1
    x8        C279      -1
    x9        __OBJ___  499
    x9        C62       -1
    x9        C79       -1
    x9        C123      -1
    x9        C389      -1
    x10       __OBJ___  911
    x10       C76       -1
    x10       C89       -1
    x10       C100      -1
    x10       C147      -1
    x10       C369      -1
    x11       __OBJ___  639
    x11       C7        -1
    x11       C82       -1
    x11       C226      -1
    x11       C325      -1
    x13       __OBJ___  415
    x13       C0        -1
    x13       C46       -1
    x13       C106      -1
    x13       C329      -1
    x15       __OBJ___  739
    x15       C22       -1
    x15       C31       -1
    x15       C94       -1
    x15       C133      -1
    x15       C256      -1
    x16       __OBJ___  21
    x16       C39       -1
    x16       C176      -1
    x16       C371      -1
    x16       C398      -1
    x17       __OBJ___  537
    x17       C227      -1
    x17       C232      -1
    x17       C285      -1
    x17       C305      -1
    x21       __OBJ___  21
    x21       C10       -1
    x21       C233      -1
    x21       C263      -1
    x23       __OBJ___  406
    x23       C2        -1
    x23       C309      -1
    x23       C312      -1
    x24       __OBJ___  532
    x24       C161      -1
    x24       C284      -1
    x24       C377      -1
    x28       __OBJ___  753
    x28       C128      -1
    x28       C306      -1
    x28       C347      -1
    x29       __OBJ___  297
    x29       C68       -1
    x29       C122      -1
    x29       C391      -1
    x35       __OBJ___  33
    x35       C29       -1
    x35       C137      -1
    x35       C317      -1
    x36       __OBJ___  572
    x36       C17       -1
    x36       C318      -1
    x37       __OBJ___  783
    x37       C116      -1
    x37       C178      -1
    x37       C304      -1
    x37       C341      -1
    x40       __OBJ___  747
    x40       C107      -1
    x40       C212      -1
    x42       __OBJ___  980
    x42       C27       -1
    x42       C61       -1
    x42       C92       -1
    x42       C125      -1
    x42       C193      -1
    x42       C201      -1
    x42       C260      -1
    x42       C332      -1
    x44       __OBJ___  783
    x44       C159      -1
    x44       C169      -1
    x44       C238      -1
    x44       C342      -1
    x45       __OBJ___  728
    x45       C146      -1
    x45       C200      -1
    x45       C219      -1
    x45       C241      -1
    x45       C280      -1
    x45       C349      -1
    x49       __OBJ___  326
    x49       C101      -1
    x49       C254      -1
    x52       __OBJ___  122
    x52       C261      -1
    x52       C287      -1
    x52       C375      -1
    x54       __OBJ___  643
    x54       C66       -1
    x54       C139      -1
    x54       C198      -1
    x54       C213      -1
    x54       C217      -1
    x58       __OBJ___  969
    x58       C72       -1
    x58       C165      -1
    x58       C330      -1
    x62       __OBJ___  523
    x62       C52       -1
    x62       C140      -1
    x62       C180      -1
    x62       C310      -1
    x62       C388      -1
    x65       __OBJ___  645
    x65       C93       -1
    x65       C266      -1
    x65       C339      -1
    x70       __OBJ___  445
    x70       C21       -1
    x70       C113      -1
    x73       __OBJ___  67
    x73       C3        -1
    x73       C168      -1
    x73       C221      -1
    x73       C299      -1
    x74       __OBJ___  260
    x74       C215      -1
    x74       C320      -1
    x77       __OBJ___  163
    x77       C4        -1
    x77       C245      -1
    x77       C382      -1
    x81       __OBJ___  684
    x81       C19       -1
    x81       C155      -1
    x81       C206      -1
    x83       __OBJ___  64
    x83       C235      -1
    x83       C360      -1
    x83       C364      -1
    x83       C387      -1
    x84       __OBJ___  606
    x84       C131      -1
    x84       C189      -1
    x89       __OBJ___  911
    x89       C158      -1
    x89       C314      -1
    x89       C333      -1
    x89       C344      -1
    x90       __OBJ___  894
    x90       C28       -1
    x90       C105      -1
    x90       C141      -1
    x90       C194      -1
    x90       C276      -1
    x91       __OBJ___  215
    x91       C117      -1
    x91       C368      -1
    x93       __OBJ___  682
    x93       C74       -1
    x93       C102      -1
    x93       C381      -1
    x95       __OBJ___  527
    x95       C112      -1
    x95       C237      -1
    x95       C259      -1
    x95       C264      -1
    x95       C355      -1
    x95       C395      -1
    x98       __OBJ___  997
    x98       C32       -1
    x98       C73       -1
    x98       C231      -1
    x99       __OBJ___  495
    x99       C87       -1
    x99       C278      -1
    x100      __OBJ___  943
    x100      C48       -1
    x100      C110      -1
    x100      C115      -1
    x100      C132      -1
    x100      C210      -1
    x100      C255      -1
    x100      C340      -1
    x104      __OBJ___  321
    x104      C79       -1
    x104      C133      -1
    x104      C339      -1
    x108      __OBJ___  638
    x108      C87       -1
    x108      C326      -1
    x108      C344      -1
    x111      __OBJ___  805
    x111      C74       -1
    x111      C318      -1
    x111      C334      -1
    x112      __OBJ___  75
    x112      C108      -1
    x112      C269      -1
    x113      __OBJ___  415
    x113      C146      -1
    x113      C195      -1
    x113      C290      -1
    x115      __OBJ___  318
    x115      C102      -1
    x115      C117      -1
    x118      __OBJ___  573
    x118      C107      -1
    x118      C389      -1
    x119      __OBJ___  299
    x119      C91       -1
    x119      C254      -1
    x121      __OBJ___  940
    x121      C194      -1
    x121      C309      -1
    x121      C370      -1
    x123      __OBJ___  97
    x123      C121      -1
    x123      C198      -1
    x124      __OBJ___  240
    x124      C116      -1
    x124      C256      -1
    x124      C279      -1
    x125      __OBJ___  207
    x125      C73       -1
    x125      C93       -1
    x125      C242      -1
    x125      C246      -1
    x128      __OBJ___  402
    x128      C3        -1
    x128      C178      -1
    x129      __OBJ___  231
    x129      C141      -1
    x129      C334      -1
    x130      __OBJ___  366
    x130      C158      -1
    x130      C330      -1
    x130      C333      -1
    x131      __OBJ___  897
    x131      C142      -1
    x131      C276      -1
    x132      __OBJ___  709
    x132      C28       -1
    x138      __OBJ___  70
    x138      C275      -1
    x140      __OBJ___  189
    x140      C24       -1
    x140      C89       -1
    x140      C137      -1
    x140      C349      -1
    x140      C364      -1
    x140      C382      -1
    x141      __OBJ___  756
    x141      C112      -1
    x141      C115      -1
    x141      C146      -1
    x141      C267      -1
    x142      __OBJ___  834
    x142      C28       -1
    x142      C255      -1
    x144      __OBJ___  440
    x144      C232      -1
    x144      C317      -1
    x146      __OBJ___  387
    x146      C195      -1
    x149      __OBJ___  57
    x149      C106      -1
    x150      __OBJ___  151
    x150      C139      -1
    x151      __OBJ___  77
    x151      C40       -1
    x151      C122      -1
    x151      C162      -1
    x151      C317      -1
    x155      __OBJ___  89
    x155      C17       -1
    x155      C247      -1
    x160      __OBJ___  53
    x160      C167      -1
    x161      __OBJ___  85
    x161      C290      -1
    x163      __OBJ___  400
    x163      C4        -1
    x163      C121      -1
    x163      C161      -1
    x163      C169      -1
    x163      C381      -1
    x165      __OBJ___  833
    x165      C3        -1
    x165      C31       -1
    x165      C87       -1
    x165      C217      -1
    x165      C237      -1
    x166      __OBJ___  623
    x166      C113      -1
    x166      C211      -1
    x166      C222      -1
    x168      __OBJ___  279
    x168      C167      -1
    x168      C255      -1
    x168      C275      -1
    x169      __OBJ___  259
    x169      C137      -1
    x169      C217      -1
    x169      C377      -1
    x175      __OBJ___  259
    x175      C90       -1
    x176      __OBJ___  160
    x176      C168      -1
    x176      C339      -1
    x176      C349      -1
    x176      C375      -1
    x178      __OBJ___  123
    x178      C31       -1
    x178      C269      -1
    x178      C275      -1
    x178      C340      -1
    x178      C389      -1
    x181      __OBJ___  813
    x181      C39       -1
    x181      C123      -1
    x181      C213      -1
    x183      __OBJ___  290
    x183      C0        -1
    x183      C110      -1
    x183      C165      -1
    x187      __OBJ___  785
    x187      C90       -1
    x187      C198      -1
    x187      C371      -1
    x191      __OBJ___  19
    x191      C16       -1
    x191      C92       -1
    x192      __OBJ___  568
    x192      C16       -1
    x192      C131      -1
    x192      C158      -1
    x194      __OBJ___  852
    x194      C72       -1
    x194      C229      -1
    x194      C256      -1
    x194      C290      -1
    x198      __OBJ___  954
    x198      C123      -1
    x198      C257      -1
    x198      C369      -1
    x199      __OBJ___  410
    x199      C7        -1
    x199      C263      -1
    x199      C278      -1
    x199      C327      -1
    x201      __OBJ___  411
    x201      C49       -1
    x201      C169      -1
    x201      C233      -1
    x201      C339      -1
    x202      __OBJ___  119
    x202      C24       -1
    x202      C92       -1
    x202      C222      -1
    x203      __OBJ___  379
    x203      C15       -1
    x203      C201      -1
    x203      C278      -1
    x204      __OBJ___  649
    x204      C140      -1
    x204      C161      -1
    x204      C316      -1
    x207      __OBJ___  165
    x207      C61       -1
    x207      C375      -1
    x208      __OBJ___  88
    x208      C46       -1
    x208      C324      -1
    x210      __OBJ___  5
    x210      C40       -1
    x210      C263      -1
    x213      __OBJ___  343
    x213      C210      -1
    x213      C238      -1
    x213      C305      -1
    x214      __OBJ___  174
    x214      C229      -1
    x214      C341      -1
    x215      __OBJ___  59
    x215      C62       -1
    x215      C251      -1
    x215      C324      -1
    x218      __OBJ___  128
    x218      C121      -1
    x218      C259      -1
    x220      __OBJ___  604
    x220      C128      -1
    x220      C159      -1
    x223      __OBJ___  531
    x223      C131      -1
    x223      C176      -1
    x223      C178      -1
    x223      C246      -1
    x223      C398      -1
    x224      __OBJ___  32
    x224      C168      -1
    x224      C327      -1
    x226      __OBJ___  418
    x226      C76       -1
    x226      C227      -1
    x229      __OBJ___  135
    x229      C264      -1
    x229      C326      -1
    x230      __OBJ___  772
    x230      C106      -1
    x230      C121      -1
    x230      C129      -1
    x230      C212      -1
    x235      __OBJ___  413
    x235      C4        -1
    x235      C200      -1
    x235      C309      -1
    x235      C325      -1
    x236      __OBJ___  434
    x236      C22       -1
    x236      C263      -1
    x236      C330      -1
    x236      C354      -1
    x240      __OBJ___  112
    x240      C105      -1
    x240      C217      -1
    x240      C360      -1
    x246      __OBJ___  351
    x246      C82       -1
    x246      C264      -1
    x246      C284      -1
    x247      __OBJ___  457
    x247      C7        -1
    x247      C355      -1
    x249      __OBJ___  562
    x249      C342      -1
    x249      C347      -1
    x250      __OBJ___  836
    x250      C106      -1
    x250      C131      -1
    x250      C215      -1
    x253      __OBJ___  31
    x253      C324      -1
    x253      C342      -1
    x253      C398      -1
    x256      __OBJ___  455
    x256      C84       -1
    x256      C155      -1
    x259      __OBJ___  257
    x259      C2        -1
    x259      C193      -1
    x259      C242      -1
    x259      C256      -1
    x259      C327      -1
    x260      __OBJ___  117
    x260      C68       -1
    x260      C312      -1
    x261      __OBJ___  610
    x261      C40       -1
    x261      C112      -1
    x261      C193      -1
    x261      C354      -1
    x265      __OBJ___  161
    x265      C139      -1
    x265      C165      -1
    x265      C278      -1
    x267      __OBJ___  179
    x267      C21       -1
    x267      C91       -1
    x267      C287      -1
    x268      __OBJ___  153
    x268      C147      -1
    x268      C305      -1
    x270      __OBJ___  621
    x270      C137      -1
    x270      C211      -1
    x270      C388      -1
    x272      __OBJ___  135
    x272      C38       -1
    x272      C96       -1
    x272      C247      -1
    x272      C267      -1
    x273      __OBJ___  10
    x273      C73       -1
    x273      C148      -1
    x273      C387      -1
    x275      __OBJ___  469
    x275      C165      -1
    x275      C232      -1
    x275      C233      -1
    x276      __OBJ___  376
    x276      C306      -1
    x276      C340      -1
    x277      __OBJ___  578
    x277      C8        -1
    x277      C33       -1
    x277      C131      -1
    x280      __OBJ___  575
    x280      C316      -1
    x280      C352      -1
    x282      __OBJ___  181
    x282      C194      -1
    x283      __OBJ___  308
    x283      C99       -1
    x283      C139      -1
    x283      C210      -1
    x283      C226      -1
    x283      C237      -1
    x284      __OBJ___  394
    x284      C251      -1
    x284      C257      -1
    x285      __OBJ___  476
    x285      C200      -1
    x285      C210      -1
    x285      C304      -1
    x286      __OBJ___  112
    x286      C10       -1
    x286      C68       -1
    x287      __OBJ___  267
    x287      C22       -1
    x287      C168      -1
    x287      C198      -1
    x287      C222      -1
    x287      C269      -1
    x291      __OBJ___  243
    x291      C68       -1
    x291      C129      -1
    x293      __OBJ___  705
    x293      C180      -1
    x293      C189      -1
    x293      C287      -1
    x293      C317      -1
    x295      __OBJ___  152
    x295      C82       -1
    x295      C139      -1
    x295      C261      -1
    x296      __OBJ___  405
    x296      C29       -1
    x296      C49       -1
    x296      C139      -1
    x296      C312      -1
    x296      C342      -1
    x299      __OBJ___  390
    x299      C53       -1
    x299      C210      -1
    x302      __OBJ___  450
    x302      C32       -1
    x302      C89       -1
    x302      C217      -1
    x302      C259      -1
    x303      __OBJ___  695
    x303      C21       -1
    x303      C66       -1
    x303      C206      -1
    x303      C299      -1
    x306      __OBJ___  830
    x306      C89       -1
    x306      C217      -1
    x306      C245      -1
    x306      C352      -1
    x310      __OBJ___  478
    x310      C19       -1
    x310      C87       -1
    x310      C206      -1
    x310      C213      -1
    x313      __OBJ___  861
    x313      C52       -1
    x313      C123      -1
    x313      C212      -1
    x313      C229      -1
    x314      __OBJ___  759
    x314      C168      -1
    x314      C235      -1
    x314      C260      -1
    x315      __OBJ___  810
    x315      C32       -1
    x315      C93       -1
    x315      C142      -1
    x315      C352      -1
    x315      C398      -1
    x316      __OBJ___  456
    x316      C206      -1
    x317      __OBJ___  208
    x317      C32       -1
    x317      C84       -1
    x317      C148      -1
    x317      C241      -1
    x317      C284      -1
    x317      C285      -1
    x317      C395      -1
    x318      __OBJ___  624
    x318      C279      -1
    x318      C304      -1
    x318      C314      -1
    x319      __OBJ___  28
    x319      C19       -1
    x319      C193      -1
    x319      C218      -1
    x320      __OBJ___  833
    x320      C229      -1
    x320      C280      -1
    x323      __OBJ___  159
    x323      C21       -1
    x323      C198      -1
    x323      C241      -1
    x324      __OBJ___  15
    x324      C10       -1
    x324      C40       -1
    x324      C93       -1
    x324      C389      -1
    x325      __OBJ___  171
    x325      C74       -1
    x325      C200      -1
    x325      C310      -1
    x325      C329      -1
    x326      __OBJ___  209
    x326      C8        -1
    x326      C219      -1
    x326      C256      -1
    x328      __OBJ___  692
    x328      C39       -1
    x328      C91       -1
    x328      C96       -1
    x328      C172      -1
    x328      C194      -1
    x328      C339      -1
    x330      __OBJ___  85
    x330      C200      -1
    x330      C341      -1
    x334      __OBJ___  473
    x334      C48       -1
    x334      C100      -1
    x336      __OBJ___  412
    x336      C87       -1
    x336      C194      -1
    x336      C285      -1
    x338      __OBJ___  668
    x338      C133      -1
    x338      C316      -1
    x339      __OBJ___  382
    x339      C82       -1
    x339      C141      -1
    x339      C247      -1
    x340      __OBJ___  167
    x340      C3        -1
    x340      C125      -1
    x341      __OBJ___  362
    x341      C108      -1
    x341      C162      -1
    x341      C247      -1
    x341      C333      -1
    x341      C371      -1
    x342      __OBJ___  446
    x342      C33       -1
    x342      C123      -1
    x342      C132      -1
    x342      C200      -1
    x342      C352      -1
    x346      __OBJ___  229
    x346      C108      -1
    x346      C180      -1
    x346      C344      -1
    x352      __OBJ___  203
    x352      C167      -1
    x352      C332      -1
    x352      C364      -1
    x353      __OBJ___  478
    x353      C31       -1
    x353      C94       -1
    x353      C222      -1
    x353      C227      -1
    x354      __OBJ___  262
    x354      C49       -1
    x354      C140      -1
    x354      C180      -1
    x356      __OBJ___  510
    x356      C91       -1
    x356      C306      -1
    x356      C335      -1
    x359      __OBJ___  711
    x359      C3        -1
    x359      C33       -1
    x359      C284      -1
    x360      __OBJ___  562
    x360      C116      -1
    x360      C314      -1
    x362      __OBJ___  904
    x362      C159      -1
    x362      C176      -1
    x362      C218      -1
    x362      C227      -1
    x362      C231      -1
    x362      C332      -1
    x363      __OBJ___  66
    x363      C158      -1
    x363      C227      -1
    x368      __OBJ___  182
    x368      C53       -1
    x368      C94       -1
    x368      C198      -1
    x368      C320      -1
    x370      __OBJ___  189
    x370      C115      -1
    x371      __OBJ___  19
    x371      C147      -1
    x371      C368      -1
    x374      __OBJ___  416
    x374      C146      -1
    x374      C172      -1
    x374      C211      -1
    x374      C261      -1
    x374      C354      -1
    x374      C391      -1
    x377      __OBJ___  503
    x377      C66       -1
    x382      __OBJ___  636
    x382      C155      -1
    x382      C168      -1
    x382      C251      -1
    x382      C354      -1
    x385      __OBJ___  490
    x385      C0        -1
    x385      C352      -1
    x388      __OBJ___  553
    x388      C142      -1
    x388      C210      -1
    x388      C318      -1
    x388      C371      -1
    x390      __OBJ___  521
    x390      C101      -1
    x390      C195      -1
    x390      C238      -1
    x391      __OBJ___  911
    x391      C27       -1
    x391      C131      -1
    x391      C217      -1
    x399      __OBJ___  489
    x399      C221      -1
    x399      C266      -1
    x399      C285      -1
    x400      __OBJ___  320
    x400      C27       -1
    x400      C382      -1
    MARKER    'MARKER'                 'INTEND'
RHS
    RHS       __OBJ___  -20278
    RHS       C0        -1
    RHS       C2        -1
    RHS       C3        -1
    RHS       C4        -1
    RHS       C7        -1
    RHS       C8        -1
    RHS       C10       -1
    RHS       C15       -1
    RHS       C16       -1
    RHS       C17       -1
    RHS       C19       -1
    RHS       C21       -1
    RHS       C22       -1
    RHS       C24       -1
    RHS       C27       -1
    RHS       C28       -1
    RHS       C29       -1
    RHS       C31       -1
    RHS       C32       -1
    RHS       C33       -1
    RHS       C38       -1
    RHS       C39       -1
    RHS       C40       -1
    RHS       C46       -1
    RHS       C48       -1
    RHS       C49       -1
    RHS       C52       -1
    RHS       C53       -1
    RHS       C61       -1
    RHS       C62       -1
    RHS       C66       -1
    RHS       C68       -1
    RHS       C72       -1
    RHS       C73       -1
    RHS       C74       -1
    RHS       C76       -1
    RHS       C79       -1
    RHS       C82       -1
    RHS       C84       -1
    RHS       C87       -1
    RHS       C89       -1
    RHS       C90       -1
    RHS       C91       -1
    RHS       C92       -1
    RHS       C93       -1
    RHS       C94       -1
    RHS       C96       -1
    RHS       C99       -1
    RHS       C100      -1
    RHS       C101      -1
    RHS       C102      -1
    RHS       C105      -1
    RHS       C106      -1
    RHS       C107      -1
    RHS       C108      -1
    RHS       C110      -1
    RHS       C112      -1
    RHS       C113      -1
    RHS       C115      -1
    RHS       C116      -1
    RHS       C117      -1
    RHS       C121      -1
    RHS       C122      -1
    RHS       C123      -1
    RHS       C125      -1
    RHS       C128      -1
    RHS       C129      -1
    RHS       C131      -1
    RHS       C132      -1
    RHS       C133      -1
    RHS       C137      -1
    RHS       C139      -1
    RHS       C140      -1
    RHS       C141      -1
    RHS       C142      -1
    RHS       C146      -1
    RHS       C147      -1
    RHS       C148      -1
    RHS       C155      -1
    RHS       C158      -1
    RHS       C159      -1
    RHS       C161      -1
    RHS       C162      -1
    RHS       C165      -1
    RHS       C167      -1
    RHS       C168      -1
    RHS       C169      -1
    RHS       C172      -1
    RHS       C176      -1
    RHS       C178      -1
    RHS       C180      -1
    RHS       C189      -1
    RHS       C193      -1
    RHS       C194      -1
    RHS       C195      -1
    RHS       C198      -1
    RHS       C200      -1
    RHS       C201      -1
    RHS       C206      -1
    RHS       C210      -1
    RHS       C211      -1
    RHS       C212      -1
    RHS       C213      -1
    RHS       C215      -1
    RHS       C217      -1
    RHS       C218      -1
    RHS       C219      -1
    RHS       C221      -1
    RHS       C222      -1
    RHS       C226      -1
    RHS       C227      -1
    RHS       C229      -1
    RHS       C231      -1
    RHS       C232      -1
    RHS       C233      -1
    RHS       C235      -1
    RHS       C237      -1
    RHS       C238      -1
    RHS       C241      -1
    RHS       C242      -1
    RHS       C245      -1
    RHS       C246      -1
    RHS       C247      -1
    RHS       C251      -1
    RHS       C254      -1
    RHS       C255      -1
    RHS       C256      -1
    RHS       C257      -1
    RHS       C259      -1
    RHS       C260      -1
    RHS       C261      -1
    RHS       C263      -1
    RHS       C264      -1
    RHS       C266      -1
    RHS       C267      -1
    RHS       C269      -1
    RHS       C275      -1
    RHS       C276      -1
    RHS       C278      -1
    RHS       C279      -1
    RHS       C280      -1
    RHS       C284      -1
    RHS       C285      -1
    RHS       C287      -1
    RHS       C290      -1
    RHS       C299      -1
    RHS       C304      -1
    RHS       C305      -1
    RHS       C306      -1
    RHS       C309      -1
    RHS       C310      -1
    RHS       C312      -1
    RHS       C314      -1
    RHS       C316      -1
    RHS       C317      -1
    RHS       C318      -1
    RHS       C320      -1
    RHS       C324      -1
    RHS       C325      -1
    RHS       C326      -1
    RHS       C327      -1
    RHS       C329      -1
    RHS       C330      -1
    RHS       C332      -1
    RHS       C333      -1
    RHS       C334      -1
    RHS       C335      -1
    RHS       C339      -1
    RHS       C340      -1
    RHS       C341      -1
    RHS       C342      -1
    RHS       C344      -1
    RHS       C347      -1
    RHS       C349      -1
    RHS       C352      -1
    RHS       C354      -1
    RHS       C355      -1
    RHS       C360      -1
    RHS       C364      -1
    RHS       C368      -1
    RHS       C369      -1
    RHS       C370      -1
    RHS       C371      -1
    RHS       C375      -1
    RHS       C377      -1
    RHS       C381      -1
    RHS       C382      -1
    RHS       C387      -1
    RHS       C388      -1
    RHS       C389      -1
    RHS       C391      -1
    RHS       C395      -1
    RHS       C398      -1
BOUNDS
 UP BOUND     x1        1
 UP BOUND     x2        1
 UP BOUND     x3        1
 UP BOUND     x4        1
 UP BOUND     x6        1
 UP BOUND     x8        1
 UP BOUND     x9        1
 UP BOUND     x10       1
 UP BOUND     x11       1
 UP BOUND     x13       1
 UP BOUND     x15       1
 UP BOUND     x16       1
 UP BOUND     x17       1
 UP BOUND     x21       1
 UP BOUND     x23       1
 UP BOUND     x24       1
 UP BOUND     x28       1
 UP BOUND     x29       1
 UP BOUND     x35       1
 UP BOUND     x36       1
 UP BOUND     x37       1
 UP BOUND     x40       1
 UP BOUND     x42       1
 UP BOUND     x44       1
 UP BOUND     x45       1
 UP BOUND     x49       1
 UP BOUND     x52       1
 UP BOUND     x54       1
 UP BOUND     x58       1
 UP BOUND     x62       1
 UP BOUND     x65       1
 UP BOUND     x70       1
 UP BOUND     x73       1
 UP BOUND     x74       1
 UP BOUND     x77       1
 UP BOUND     x81       1
 UP BOUND     x83       1
 UP BOUND     x84       1
 UP BOUND     x89       1
 UP BOUND     x90       1
 UP BOUND     x91       1
 UP BOUND     x93       1
 UP BOUND     x95       1
 UP BOUND     x98       1
 UP BOUND     x99       1
 UP BOUND     x100      1
 UP BOUND     x104      1
 UP BOUND     x108      1
 UP BOUND     x111      1
 UP BOUND     x112      1
 UP BOUND     x113      1
 UP BOUND     x115      1
 UP BOUND     x118      1
 UP BOUND     x119      1
 UP BOUND     x121      1
 UP BOUND     x123      1
 UP BOUND     x124      1
 UP BOUND     x125      1
 UP BOUND     x128      1
 UP BOUND     x129      1
 UP BOUND     x130      1
 UP BOUND     x131      1
 UP BOUND     x132      1
 UP BOUND     x138      1
 UP BOUND     x140      1
 UP BOUND     x141      1
 UP BOUND     x142      1
 UP BOUND     x144      1
 UP BOUND     x146      1
 UP BOUND     x149      1
 UP BOUND     x150      1
 UP BOUND     x151      1
 UP BOUND     x155      1
 UP BOUND     x160      1
 UP BOUND     x161      1
 UP BOUND     x163      1
 UP BOUND     x165      1
 UP BOUND     x166      1
 UP BOUND     x168      1
 UP BOUND     x169      1
 UP BOUND     x175      1
 UP BOUND     x176      1
 UP BOUND     x178      1
 UP BOUND     x181      1
 UP BOUND     x183      1
 UP BOUND     x187      1
 UP BOUND     x191      1
 UP BOUND     x192      1
 UP BOUND     x194      1
 UP BOUND     x198      1
 UP BOUND     x199      1
 UP BOUND     x201      1
 UP BOUND     x202      1
 UP BOUND     x203      1
 UP BOUND     x204      1
 UP BOUND     x207      1
 UP BOUND     x208      1
 UP BOUND     x210      1
 UP BOUND     x213      1
 UP BOUND     x214      1
 UP BOUND     x215      1
 UP BOUND     x218      1
 UP BOUND     x220      1
 UP BOUND     x223      1
 UP BOUND     x224      1
 UP BOUND     x226      1
 UP BOUND     x229      1
 UP BOUND     x230      1
 UP BOUND     x235      1
 UP BOUND     x236      1
 UP BOUND     x240      1
 UP BOUND     x246      1
 UP BOUND     x247      1
 UP BOUND     x249      1
 UP BOUND     x250      1
 UP BOUND     x253      1
 UP BOUND     x256      1
 UP BOUND     x259      1
 UP BOUND     x260      1
 UP BOUND     x261      1
 UP BOUND     x265      1
 UP BOUND     x267      1
 UP BOUND     x268      1
 UP BOUND     x270      1
 UP BOUND     x272      1
 UP BOUND     x273      1
 UP BOUND     x275      1
 UP BOUND     x276      1
 UP BOUND     x277      1
 UP BOUND     x280      1
 UP BOUND     x282      1
 UP BOUND     x283      1
 UP BOUND     x284      1
 UP BOUND     x285      1
 UP BOUND     x286      1
 UP BOUND     x287      1
 UP BOUND     x291      1
 UP BOUND     x293      1
 UP BOUND     x295      1
 UP BOUND     x296      1
 UP BOUND     x299      1
 UP BOUND     x302      1
 UP BOUND     x303      1
 UP BOUND     x306      1
 UP BOUND     x310      1
 UP BOUND     x313      1
 UP BOUND     x314      1
 UP BOUND     x315      1
 UP BOUND     x316      1
 UP BOUND     x317      1
 UP BOUND     x318      1
 UP BOUND     x319      1
 UP BOUND     x320      1
 UP BOUND     x323      1
 UP BOUND     x324      1
 UP BOUND     x325      1
 UP BOUND     x326      1
 UP BOUND     x328      1
 UP BOUND     x330      1
 UP BOUND     x334      1
 UP BOUND     x336      1
 UP BOUND     x338      1
 UP BOUND     x339      1
 UP BOUND     x340      1
 UP BOUND     x341      1
 UP BOUND     x342      1
 UP BOUND     x346      1
 UP BOUND     x352      1
 UP BOUND     x353      1
 UP BOUND     x354      1
 UP BOUND     x356      1
 UP BOUND     x359      1
 UP BOUND     x360      1
 UP BOUND     x362      1
 UP BOUND     x363      1
 UP BOUND     x368      1
 UP BOUND     x370      1
 UP BOUND     x371      1
 UP BOUND     x374      1
 UP BOUND     x377      1
 UP BOUND     x382      1
 UP BOUND     x385      1
 UP BOUND     x388      1
 UP BOUND     x390      1
 UP BOUND     x391      1
 UP BOUND     x399      1
 UP BOUND     x400      1
ENDATA
